 10 
 
 0 6 8 9 0 7 0 3 5 9
 7 0 2 8 3 9 7 0 5 5
 8 3 0 9 4 5 5 9 5 9
 9 8 9 0 2 5 7 8 5 9
 0 1 4 2 0 1 6 4 0 3
 6 9 6 5 0 0 5 0 1 6
 0 8 6 6 6 5 0 9 6 1
 1 1 9 8 4 0 8 0 3 7
 5 5 5 4 0 2 5 2 0 5
 9 4 8 8 3 5 1 7 5 0

 0 5 4 2 10 5 9 8 6 2
 5 0 8 4 8 3 4 9 6 7
 4 8 0 1 7 5 5 3 6 3
 2 4 1 0 8 6 5 4 7 3
 10 8 7 8 0 9 5 7 9 7
 5 3 5 6 9 0 6 9 8 5
 9 4 5 5 5 6 0 3 5 8
 8 9 3 4 7 9 3 0 8 4
 6 6 6 7 9 8 5 8 0 6
 2 7 3 3 7 5 8 4 6 0
